146
0 3 0
1 3 2
2 4 0
3 4 2
4 5 1
5 6 2
6 6 4
7 7 2
8 7 4
9 7 6
10 8 0
11 8 1
12 8 2
13 8 4
14 8 5
15 8 6
16 8 7
17 9 2
18 10 3
19 10 5
20 10 7
21 11 0
22 11 4
23 11 6
24 12 2
25 12 4
26 12 5
27 12 7
28 12 9
29 12 11
30 13 2
31 13 3
32 13 6
33 13 8
34 13 9
35 13 10
36 13 11
37 14 0
38 14 1
39 14 3
40 14 5
41 14 7
42 14 10
43 14 13
44 15 2
45 15 6
46 15 7
47 15 9
48 15 10
49 15 12
50 16 0
51 16 1
52 16 2
53 16 3
54 16 4
55 16 6
56 16 7
57 16 8
58 16 11
59 17 0
60 17 1
61 17 7
62 17 8
63 17 12
64 17 14
65 17 15
66 18 0
67 18 1
68 18 2
69 18 3
70 18 4
71 18 6
72 18 10
73 18 12
74 18 14
75 18 16
76 19 1
77 19 2
78 19 4
79 19 5
80 19 7
81 19 8
82 19 9
83 19 10
84 19 11
85 19 13
86 19 14
87 19 15
88 19 18
89 20 3
90 20 9
91 20 14
92 20 15
93 20 16
94 20 17
95 20 18
96 20 19
97 21 0
98 21 1
99 21 2
100 21 4
101 21 5
102 21 12
103 21 14
104 21 15
105 21 18
106 21 19
107 21 20
108 22 0
109 22 1
110 22 3
111 22 4
112 22 7
113 22 10
114 22 17
115 22 19
116 22 20
117 22 21
118 23 0
119 23 1
120 23 2
121 23 3
122 23 6
123 23 7
124 23 11
125 23 14
126 23 16
127 23 19
128 23 20
129 23 21
130 23 22
131 24 1
132 24 3
133 24 5
134 24 6
135 24 7
136 24 8
137 24 9
138 24 10
139 24 11
140 24 14
141 24 15
142 24 16
143 24 17
144 24 20
145 24 21
